db/data/3834223891789125629146062805315344051.z3.out
-------------------
2500.227412671
